Solver command line: ['/usr/local/bin/ipopt', '/tmp/tmp7463801y.pyomo.nl', '-AMPL', 'linear_solver=ma27']

Ipopt 3.14.6: linear_solver=ma27


******************************************************************************
This program contains Ipopt, a library for large-scale nonlinear optimization.
 Ipopt is released as open source code under the Eclipse Public License (EPL).
         For more information visit https://github.com/coin-or/Ipopt
******************************************************************************

This is Ipopt version 3.14.6, running with linear solver ma27.

Number of nonzeros in equality constraint Jacobian...:       59
Number of nonzeros in inequality constraint Jacobian.:        0
Number of nonzeros in Lagrangian Hessian.............:       29

Total number of variables............................:       23
                     variables with only lower bounds:        0
                variables with lower and upper bounds:       12
                     variables with only upper bounds:        0
Total number of equality constraints.................:       23
Total number of inequality constraints...............:        0
        inequality constraints with only lower bounds:        0
   inequality constraints with lower and upper bounds:        0
        inequality constraints with only upper bounds:        0

iter    objective    inf_pr   inf_du lg(mu)  ||d||  lg(rg) alpha_du alpha_pr  ls
   0  2.5526493e+00 8.26e+08 1.00e+02  -1.0 0.00e+00    -  0.00e+00 0.00e+00   0
   1  8.0290986e+00 6.70e+08 5.70e+09  -1.0 9.09e+09    -  5.77e-05 4.30e-04h  1
   2r 8.0290986e+00 6.70e+08 9.99e+02   8.3 0.00e+00    -  0.00e+00 2.15e-08R  2
   3r 2.3619639e+04 3.40e+12 6.60e+07   8.3 1.58e+11    -  1.39e-04 1.56e-07f  1
   4r 2.3618881e+04 3.38e+12 6.57e+07   3.5 4.80e+10    -  4.97e-03 4.60e-03f  1
   5r 2.3618602e+04 3.38e+12 5.40e+07   3.5 8.87e+08    -  1.79e-01 2.49e-03f  1
   6r 2.3596518e+04 2.87e+12 6.22e+05   3.5 2.18e+05  -4.0 9.90e-01 1.67e-01f  1
   7r 2.2372159e+04 1.29e+12 3.31e+05   3.5 1.90e+05  -4.5 3.95e-01 9.57e-01f  1
   8r 1.2404085e+04 4.80e+11 4.17e+03   3.5 3.55e+04  -5.0 9.91e-01 9.60e-01f  1
   9r 1.8923010e+03 1.11e+11 9.71e+03   2.8 1.92e+05    -  3.63e-01 8.77e-01f  1
iter    objective    inf_pr   inf_du lg(mu)  ||d||  lg(rg) alpha_du alpha_pr  ls
  10r 1.4651095e+02 2.47e+10 4.69e+04   2.8 4.95e+05    -  1.00e+00 7.03e-01f  1
  11r 3.6211408e+00 3.30e+09 1.24e+05   2.1 7.45e+04    -  7.31e-01 9.46e-01f  1
  12r 7.7433384e+00 1.42e+09 8.49e+04   2.1 1.33e+05    -  1.00e+00 1.00e+00f  1
  13r 7.2064289e+00 3.97e+08 9.09e+04   2.1 1.25e+05    -  5.08e-01 1.00e+00H  1
  14r 7.5624011e+00 1.76e+08 6.10e+04   2.1 1.31e+05    -  1.00e+00 1.00e+00f  1
  15r 7.5520009e+00 7.76e+07 5.34e+04   2.1 4.85e+04    -  1.00e+00 1.00e+00f  1
  16r 7.5570257e+00 3.18e+07 5.30e+04   2.1 2.17e+04    -  1.00e+00 1.00e+00f  1
  17r 7.5573975e+00 7.76e+06 7.45e+04   2.1 1.18e+04    -  1.41e-01 3.52e-01h  1
  18r 7.5530814e+00 5.42e+05 3.01e+05   2.1 1.15e+01   2.9 1.96e-01 4.50e-01f  1
  19r 7.5560195e+00 5.40e+05 9.95e+02   2.1 3.84e+00   2.4 1.00e+00 1.00e+00f  1
iter    objective    inf_pr   inf_du lg(mu)  ||d||  lg(rg) alpha_du alpha_pr  ls
  20r 7.5575433e+00 5.40e+05 2.10e+03   0.7 7.24e+05    -  1.30e-01 5.63e-03f  1
  21r 7.5965011e+00 5.39e+05 7.27e+03   0.7 1.19e+06    -  4.85e-01 1.49e-01f  1
  22r 7.7611764e+00 5.39e+05 3.10e+03   0.7 1.69e-01   1.9 1.00e+00 8.60e-01f  1
  23r 7.7303625e+00 5.38e+05 2.10e+00   0.7 7.29e-02   1.5 1.00e+00 1.00e+00f  1
  24r 7.7288114e+00 5.38e+05 4.87e+01  -1.4 8.25e-02   1.0 9.98e-01 9.60e-01f  1
  25r 7.7285581e+00 5.38e+05 6.96e+01  -1.4 2.43e-01   0.5 1.00e+00 8.27e-01f  1
  26r 7.7285052e+00 5.38e+05 7.75e-01  -1.4 7.27e-01   0.0 1.00e+00 1.00e+00f  1
  27r 7.7285053e+00 5.38e+05 7.74e-01  -2.2 2.18e+00  -0.4 1.00e+00 1.00e+00f  1
  28r 7.7285053e+00 5.38e+05 7.71e-01  -2.2 6.52e+00  -0.9 1.00e+00 1.00e+00f  1
  29r 7.7285053e+00 5.36e+05 7.65e-01  -2.2 1.94e+01  -1.4 1.00e+00 1.00e+00f  1
iter    objective    inf_pr   inf_du lg(mu)  ||d||  lg(rg) alpha_du alpha_pr  ls
  30r 7.7285053e+00 5.33e+05 3.55e+00  -2.2 5.76e+01  -1.9 1.00e+00 1.00e+00f  1
  31r 7.7285053e+00 5.33e+05 1.47e+02  -2.2 1.81e+02  -2.4 1.00e+00 3.21e-02f  1
  32r 7.7285053e+00 5.33e+05 1.73e+03  -2.2 1.89e+02  -2.8 1.00e+00 7.49e-03f  1
  33r 7.7285054e+00 5.25e+05 1.43e+03  -2.2 6.44e+02  -3.3 3.06e-01 2.15e-01f  1
  34r 7.7285054e+00 5.25e+05 1.33e+03  -2.2 1.09e+03  -3.8 7.58e-01 9.01e-04f  1
  35r 7.7285052e+00 4.95e+05 9.87e+02  -2.2 1.92e+01  -4.3 1.00e+00 1.52e-01h  1
  36r 7.7285016e+00 4.36e+05 4.13e+00  -2.2 5.98e+00  -4.7 6.06e-01 1.00e+00f  1
  37r 7.7284909e+00 2.51e+05 1.74e-01  -2.2 1.85e+01  -5.2 1.00e+00 1.00e+00h  1
  38r 7.7284590e+00 1.47e+05 2.51e+01  -3.2 4.97e+01  -5.7 7.60e-01 1.00e+00f  1
  39r 7.7283684e+00 2.95e+03 1.43e+00  -3.2 1.49e+02  -6.2 1.00e+00 8.69e-01f  1
iter    objective    inf_pr   inf_du lg(mu)  ||d||  lg(rg) alpha_du alpha_pr  ls
  40r 7.7280554e+00 2.78e+04 6.03e-04  -3.2 4.46e+02  -6.7 1.00e+00 1.00e+00f  1
  41r 7.7271140e+00 3.38e+03 3.37e-01  -4.9 1.34e+03  -7.1 9.78e-01 1.00e+00f  1
  42r 7.7248356e+00 2.95e+03 5.58e-01  -4.9 4.03e+03  -7.6 1.00e+00 7.79e-01f  1
  43r 7.7158673e+00 2.05e+04 5.58e-03  -4.9 1.22e+04  -8.1 1.00e+00 1.00e+00f  1
  44r 7.6871203e+00 2.00e+05 5.55e-02  -4.9 3.74e+04  -8.6 1.00e+00 1.00e+00f  1
  45r 7.5850122e+00 2.15e+06 6.21e-01  -4.9 1.21e+05  -9.0 1.00e+00 1.00e+00f  1
  46r 7.1316908e+00 2.52e+07 8.78e+00  -4.9 4.69e+05  -9.5 1.00e+00 1.00e+00f  1
  47r 5.6742087e+00 3.77e+07 1.40e+03  -4.9 5.80e+06 -10.0 3.91e-02 2.10e-01f  1
  48r 5.6742087e+00 3.49e+07 1.85e+03  -4.9 3.35e+02  -2.1 5.96e-07 7.34e-02f  1
  49r 5.6742087e+00 3.72e+06 1.97e+02  -4.9 5.88e+01  -0.8 1.00e+00 8.94e-01f  1
iter    objective    inf_pr   inf_du lg(mu)  ||d||  lg(rg) alpha_du alpha_pr  ls
  50r 5.6742087e+00 3.72e+06 1.97e+02  -4.9 3.22e+02  -1.3 2.26e-01 2.57e-06h  1
  51r 5.6742087e+00 2.79e+06 1.48e+02  -4.9 9.89e+01  -1.8 6.56e-02 2.50e-01h  3
  52r 5.6742087e+00 2.73e+06 1.91e+03  -4.9 8.11e+01  -2.2 9.74e-01 2.15e-02h  1
  53r 5.6742085e+00 2.55e+05 1.78e+04  -4.9 7.97e+01  -2.7 9.88e-02 1.00e+00H  1
  54r 5.6742080e+00 9.53e+04 6.79e+03  -4.9 1.81e+00  -3.2 1.00e+00 6.22e-01h  1
  55r 5.6742058e+00 1.73e+03 1.75e-02  -4.9 1.46e+00  -3.7 1.00e+00 1.00e+00h  1
  56r 5.6741993e+00 1.72e+03 3.03e-04  -4.9 4.36e+00  -4.2 1.00e+00 1.00e+00h  1
  57r 5.6741827e+00 1.72e+03 5.83e+01  -7.3 1.31e+01  -4.6 1.00e+00 8.42e-01h  1
  58r 5.6741251e+00 1.72e+03 1.75e+01  -7.3 3.94e+01  -5.1 1.00e+00 9.69e-01h  1
  59r 5.6739469e+00 1.72e+03 1.05e-03  -7.3 1.18e+02  -5.6 1.00e+00 1.00e+00f  1
iter    objective    inf_pr   inf_du lg(mu)  ||d||  lg(rg) alpha_du alpha_pr  ls
  60r 5.6734123e+00 1.72e+03 3.16e-03  -7.3 3.55e+02  -6.1 1.00e+00 1.00e+00f  1
  61r 5.6718087e+00 1.72e+03 9.47e-03  -7.3 1.06e+03  -6.5 1.00e+00 1.00e+00f  1
  62r 5.6669985e+00 1.72e+03 2.84e-02  -7.3 3.19e+03  -7.0 1.00e+00 1.00e+00f  1
  63r 5.6525739e+00 1.72e+03 8.55e-02  -7.3 9.59e+03  -7.5 1.00e+00 1.00e+00f  1
  64r 5.6093483e+00 1.32e+04 2.58e-01  -7.3 2.88e+04  -8.0 1.00e+00 1.00e+00f  1
  65r 5.4798933e+00 1.15e+05 7.93e-01  -7.3 8.69e+04  -8.5 1.00e+00 1.00e+00f  1
  66r 5.0862371e+00 9.83e+05 3.62e+00  -7.3 2.71e+05  -8.9 1.00e+00 1.00e+00f  1
In iteration 66, 1 Slack too small, adjusting variable bound
  67r 4.4365605e+00 2.79e+06 2.03e+02  -7.3 1.64e+06  -9.4 1.00e+00 2.88e-01f  1
  68r 4.2479269e+00 5.81e+06 7.47e+01  -7.3 1.10e+05  -8.1 1.00e+00 1.00e+00H  1
  69r 3.9045951e+00 4.42e+05 1.02e+01  -7.3 2.69e+05  -8.6 1.00e+00 1.00e+00h  1
iter    objective    inf_pr   inf_du lg(mu)  ||d||  lg(rg) alpha_du alpha_pr  ls
  70r 3.6806049e+00 1.22e+05 2.00e+00  -7.3 2.33e+05  -9.0 1.00e+00 1.00e+00h  1
In iteration 70, 1 Slack too small, adjusting variable bound
  71r 2.7496527e+00 3.39e+06 1.13e+02  -7.3 1.65e+06  -9.5 1.00e+00 5.32e-01f  1
  72r 2.7880998e+00 2.31e+06 1.25e+02  -7.3 3.02e+05  -7.3 2.97e-01 2.96e-01H  1
  73r 2.6304915e+00 6.61e+05 1.39e+04  -7.3 1.51e+05  -7.8 4.87e-04 1.00e+00h  1
  74r 2.6425861e+00 5.71e+05 1.21e+04  -7.3 9.42e+04  -8.2 1.19e-03 1.25e-01h  4
  75r 2.6425861e+00 5.67e+05 1.20e+04  -7.3 2.10e+01  -0.4 1.00e+00 1.02e-02f  1
  76r 2.6425861e+00 5.57e+05 1.16e+04  -7.3 3.93e+01  -0.9 1.00e+00 3.80e-02f  1
  77r 2.6425861e+00 5.57e+05 1.16e+04  -7.3 4.07e+01  -1.3 0.00e+00 7.55e-08R  2
In iteration 77, 1 Slack too small, adjusting variable bound
  78r 2.6425861e+00 5.57e+05 1.18e+04  -7.3 5.84e+03  -1.8 1.50e-02 1.22e-09f  1
  79r 2.6425861e+00 5.52e+05 1.17e+04  -7.3 2.09e+03  -0.5 2.86e-01 2.13e-04f  8
iter    objective    inf_pr   inf_du lg(mu)  ||d||  lg(rg) alpha_du alpha_pr  ls
  80r 2.6425861e+00 5.44e+05 1.15e+04  -7.3 9.64e+02  -0.1 1.00e+00 8.70e-04f  7
  81r 2.6425861e+00 5.40e+05 1.15e+04  -7.3 2.23e+03  -0.5 2.48e-01 1.95e-04f  8
  82r 2.6425861e+00 5.32e+05 1.15e+04  -7.3 1.06e+03  -0.1 1.00e+00 7.80e-04f  7
  83r 2.6425861e+00 5.28e+05 1.15e+04  -7.3 2.37e+03  -0.6 1.61e-01 1.80e-04f  8
  84r 2.6425861e+00 2.05e+04 1.10e+04  -7.3 1.15e+03  -0.2 1.00e+00 4.50e-02f  1
  85r 2.6425861e+00 2.08e+05 1.02e+04  -7.3 5.26e+02  -0.6 2.74e-01 7.65e-02f  1
  86r 2.6425861e+00 2.08e+05 1.02e+04  -7.3 1.37e+03  -1.1 8.07e-09 1.69e-09f  1
  87r 2.6425861e+00 2.08e+05 1.02e+04  -7.3 2.91e+01  -1.6 0.00e+00 1.85e-12R  8
  88r 2.6425861e+00 2.02e+05 1.02e+04  -7.3 1.91e+03  -1.2 1.15e-11 8.96e-04f  1
  89r 2.6425861e+00 2.02e+05 1.02e+04  -7.3 8.12e+02  -1.6 1.00e+00 9.46e-07f  1
iter    objective    inf_pr   inf_du lg(mu)  ||d||  lg(rg) alpha_du alpha_pr  ls
  90r 2.6425861e+00 1.89e+05 1.01e+04  -7.3 7.98e+02  -2.1 1.00e+00 1.66e-03f  1
  91r 2.6425861e+00 1.89e+05 1.01e+04  -7.3 7.07e+02  -2.6 1.00e+00 3.15e-06f  1
  92r 2.6425860e+00 2.18e+04 9.87e+03  -7.3 7.08e+02  -3.1 1.00e+00 2.73e-02f  1
  93r 2.6425855e+00 1.38e+04 7.70e+03  -7.3 1.10e+01  -3.6 1.00e+00 2.19e-01f  1
  94r 2.6425791e+00 1.04e+03 2.44e-02  -7.3 6.19e+00  -4.0 1.00e+00 1.00e+00f  1
  95r 2.6425600e+00 1.04e+03 5.74e-04  -7.3 1.86e+01  -4.5 1.00e+00 1.00e+00h  1
  96r 2.6425027e+00 1.04e+03 5.74e-04  -7.3 5.58e+01  -5.0 1.00e+00 1.00e+00f  1
  97r 2.6423307e+00 1.04e+03 1.49e-03  -7.3 1.67e+02  -5.5 1.00e+00 1.00e+00f  1
  98r 2.6418149e+00 1.04e+03 4.46e-03  -7.3 5.02e+02  -5.9 1.00e+00 1.00e+00f  1
  99r 2.6402682e+00 1.04e+03 1.34e-02  -7.3 1.50e+03  -6.4 1.00e+00 1.00e+00f  1
iter    objective    inf_pr   inf_du lg(mu)  ||d||  lg(rg) alpha_du alpha_pr  ls
 100r 2.6356341e+00 1.45e+03 4.02e-02  -7.3 4.51e+03  -6.9 1.00e+00 1.00e+00f  1
 101r 2.6217853e+00 4.57e+03 1.21e-01  -7.3 1.35e+04  -7.4 1.00e+00 1.00e+00f  1
 102r 2.5807096e+00 1.58e+04 3.63e-01  -7.3 4.03e+04  -7.9 1.00e+00 1.00e+00f  1
 103r 2.4614186e+00 6.64e+04 1.09e+00  -7.3 1.19e+05  -8.3 1.00e+00 1.00e+00f  1
 104r 2.1298164e+00 3.98e+05 5.84e+00  -7.3 3.46e+05  -8.8 1.00e+00 1.00e+00f  1
In iteration 104, 1 Slack too small, adjusting variable bound
 105r 1.6789653e+00 2.19e+06 4.29e+02  -7.3 2.58e+06  -9.3 1.00e+00 2.01e-01f  1
 106r 1.7215052e+00 2.20e+06 2.07e+02  -7.3 8.07e+05  -8.0 3.70e-01 6.39e-02h  2
In iteration 106, 1 Slack too small, adjusting variable bound
 107r 1.7215048e+00 2.20e+06 7.54e+02  -7.3 7.41e+05  -8.4 1.34e-01 4.02e-08H  1
 108r 1.5723315e+00 8.57e+06 5.56e+01  -7.3 9.10e+04  -8.0 1.00e+00 1.00e+00H  1
 109r 1.3571210e+00 1.86e+05 1.24e+01  -7.3 2.81e+05  -8.5 1.00e+00 1.00e+00h  1
iter    objective    inf_pr   inf_du lg(mu)  ||d||  lg(rg) alpha_du alpha_pr  ls
 110r 1.2063318e+00 1.51e+05 2.51e+00  -7.3 2.14e+05  -9.0 1.00e+00 9.86e-01h  1
In iteration 110, 1 Slack too small, adjusting variable bound
 111r 7.1127656e-01 4.61e+06 7.17e+01  -7.3 1.67e+06  -9.4 3.99e-01 4.84e-01f  1
 112r 7.1446921e-01 4.56e+06 2.80e+02  -7.3 4.53e+05  -7.2 8.24e-02 1.32e-02h  5
In iteration 112, 1 Slack too small, adjusting variable bound
 113r 7.1446920e-01 4.56e+06 2.71e+03  -7.3 4.21e+06  -7.7 6.27e-02 1.67e-09H  1
 114r 7.1446920e-01 4.56e+06 2.71e+03  -7.3 2.52e+05  -7.3 0.00e+00 1.53e-08R  2
In iteration 114, 1 Slack too small, adjusting variable bound
 115r 7.1446920e-01 4.56e+06 1.10e+03  -7.3 2.58e+02   0.6 1.00e+00 3.79e-04f  1
In iteration 115, 1 Slack too small, adjusting variable bound
 116r 7.1446920e-01 4.56e+06 1.34e+03  -7.3 7.71e+02   0.1 1.00e+00 8.21e-04f  7
In iteration 116, 1 Slack too small, adjusting variable bound
 117r 7.1446920e-01 4.56e+06 1.16e+03  -7.3 2.55e+03  -0.4 4.35e-02 3.26e-05f 10
In iteration 117, 1 Slack too small, adjusting variable bound
 118r 7.1446920e-01 4.54e+06 1.35e+03  -7.3 8.67e+02   0.1 1.00e+00 1.56e-03f  6
In iteration 118, 1 Slack too small, adjusting variable bound
 119r 7.1446920e-01 4.54e+06 1.01e+03  -7.3 3.36e+03  -0.4 3.11e-02 2.58e-05f  8
In iteration 119, 1 Slack too small, adjusting variable bound
iter    objective    inf_pr   inf_du lg(mu)  ||d||  lg(rg) alpha_du alpha_pr  ls
 120r 7.1446920e-01 4.54e+06 1.37e+03  -7.3 9.75e+02   0.0 1.00e+00 1.67e-04f  7
In iteration 120, 1 Slack too small, adjusting variable bound
 121r 7.1446920e-01 4.54e+06 1.16e+03  -7.3 3.67e+02   0.4 1.00e+00 1.53e-03f  1
In iteration 121, 1 Slack too small, adjusting variable bound
 122r 7.1446920e-01 4.07e+06 1.11e+03  -7.3 1.10e+03  -0.0 5.80e-02 4.60e-02f  1
In iteration 122, 1 Slack too small, adjusting variable bound
 123r 7.1446920e-01 4.07e+06 1.01e+03  -7.3 4.13e+02   0.4 1.00e+00 7.47e-08f  1
In iteration 123, 1 Slack too small, adjusting variable bound
 124r 7.1446920e-01 7.34e+05 1.00e+03  -7.3 1.23e+03  -0.1 6.96e-01 3.17e-01f  1
In iteration 124, 1 Slack too small, adjusting variable bound
 125r 7.1446920e-01 7.34e+05 9.76e+02  -7.3 3.04e+03  -0.6 2.57e-01 7.71e-09f  1
In iteration 125, 1 Slack too small, adjusting variable bound
 126r 7.1446920e-01 7.44e+05 8.81e+02  -7.3 1.91e+03  -1.0 6.72e-01 1.83e-02f  1
 127r 7.1446910e-01 9.73e+05 4.27e+02  -7.3 7.03e+01  -1.5 8.44e-08 5.69e-01f  1
 128r 7.1446910e-01 1.24e+06 4.09e+02  -7.3 4.31e+03  -1.1 6.61e-02 1.20e-02f  1
 129r 7.1446910e-01 1.24e+06 5.22e+02  -7.3 1.08e+03  -1.6 7.80e-02 3.02e-09f  1
iter    objective    inf_pr   inf_du lg(mu)  ||d||  lg(rg) alpha_du alpha_pr  ls
 130r 7.1446903e-01 8.10e+05 2.59e+02  -7.3 1.02e+02  -2.1 9.93e-01 4.54e-01f  1
 131r 7.1446903e-01 8.10e+05 3.15e+02  -7.3 1.34e+02  -2.5 1.00e+00 2.74e-08h  1
 132r 7.1446863e-01 1.15e+05 1.21e+02  -7.3 8.59e+00  -3.0 1.00e+00 8.38e-01f  1
 133r 7.1446734e-01 1.61e+03 1.02e-01  -7.3 2.41e+00  -3.5 1.00e+00 9.99e-01f  1
 134r 7.1446348e-01 1.61e+03 7.92e-04  -7.3 7.21e+00  -4.0 1.00e+00 1.00e+00h  1
 135r 7.1445191e-01 1.61e+03 7.92e-04  -7.3 2.16e+01  -4.4 1.00e+00 1.00e+00h  1
 136r 7.1441720e-01 1.61e+03 7.92e-04  -7.3 6.49e+01  -4.9 1.00e+00 1.00e+00f  1
 137r 7.1431308e-01 1.61e+03 1.73e-03  -7.3 1.95e+02  -5.4 1.00e+00 1.00e+00f  1
 138r 7.1400081e-01 1.61e+03 5.20e-03  -7.3 5.84e+02  -5.9 1.00e+00 1.00e+00f  1
 139r 7.1306473e-01 1.60e+03 1.56e-02  -7.3 1.75e+03  -6.3 1.00e+00 1.00e+00f  1
iter    objective    inf_pr   inf_du lg(mu)  ||d||  lg(rg) alpha_du alpha_pr  ls
 140r 7.1026301e-01 2.33e+03 4.68e-02  -7.3 5.25e+03  -6.8 1.00e+00 1.00e+00f  1
 141r 7.0191624e-01 7.40e+03 1.40e-01  -7.3 1.57e+04  -7.3 1.00e+00 1.00e+00f  1
 142r 6.7739018e-01 2.58e+04 4.21e-01  -7.3 4.67e+04  -7.8 1.00e+00 1.00e+00f  1
 143r 6.0813888e-01 1.10e+05 1.27e+00  -7.3 1.37e+05  -8.3 1.00e+00 1.00e+00f  1
 144r 4.3130374e-01 6.45e+05 7.43e+00  -7.3 3.89e+05  -8.7 1.00e+00 1.00e+00f  1
In iteration 144, 1 Slack too small, adjusting variable bound
 145r 2.6033670e-01 1.17e+07 6.39e+02  -7.3 1.37e+07  -9.2 1.73e-01 3.38e-02f  1
 146r 2.3661338e-01 4.20e+06 1.71e+02  -7.3 3.07e+06  -9.7 1.00e+00 3.73e-01f  1
 147r 2.0465124e-02 1.37e+07 9.68e+01  -7.3 1.11e+07 -10.2 9.06e-01 9.30e-01f  1
 148r 7.0958829e-04 1.40e+07 7.73e+02  -7.3 2.85e+07  -9.7 6.68e-10 2.24e-02f  1
 149r 7.0958829e-04 1.40e+07 2.00e+03  -7.3 3.56e+01   0.1 4.90e-03 2.64e-07h  1
iter    objective    inf_pr   inf_du lg(mu)  ||d||  lg(rg) alpha_du alpha_pr  ls
 150r 7.0958829e-04 1.39e+07 2.00e+03  -7.3 3.60e+01  -0.4 4.47e-04 1.17e-03f  1
 151r 7.0958829e-04 1.39e+07 2.00e+03  -7.3 3.66e+01  -0.8 0.00e+00 3.06e-11R  2
 152r 7.0958829e-04 1.39e+07 2.00e+03  -7.3 2.65e+03  -0.4 1.80e-01 5.40e-04f  7
 153r 7.0958829e-04 1.39e+07 2.00e+03  -7.3 9.10e+03  -0.9 3.14e-04 1.16e-05f 12
 154r 7.0958829e-04 1.39e+07 2.00e+03  -7.3 2.99e+03  -0.5 3.17e-01 6.65e-05f 10
 155r 7.0958829e-04 1.39e+07 2.00e+03  -7.3 1.10e+04  -0.9 2.69e-04 9.03e-06f 12
 156r 7.0958829e-04 1.39e+07 2.00e+03  -7.3 3.38e+03  -0.5 6.98e-02 1.63e-05f 12
 157r 7.0958829e-04 1.37e+07 1.97e+03  -7.3 1.39e+04  -1.0 2.07e-04 1.35e-02f  1
 158r 7.0958829e-04 1.37e+07 1.97e+03  -7.3 8.30e+03  -0.6 1.87e-02 3.42e-10f  1
 159r 7.0958828e-04 9.55e+06 1.88e+03  -7.3 1.12e+04  -1.1 3.44e-03 4.39e-02f  1
iter    objective    inf_pr   inf_du lg(mu)  ||d||  lg(rg) alpha_du alpha_pr  ls
 160r 7.0958828e-04 9.55e+06 3.23e+03  -7.3 3.31e+04  -1.5 9.46e-02 1.04e-10f  1
 161r 7.0958828e-04 9.55e+06 1.88e+03  -7.3 9.33e+04  -2.0 5.20e-02 2.96e-09f  1
 162r 7.0958801e-04 4.13e+06 1.88e+03  -7.3 2.42e+05  -2.5 8.68e-06 3.30e-03f  1
 163r 7.0958793e-04 3.93e+06 1.92e+03  -7.3 1.57e+06  -3.0 2.24e-14 1.49e-05f  1
 164r 7.0958793e-04 3.78e+06 1.92e+03  -7.3 4.11e+04  -1.6 1.70e-10 3.96e-04f  1
 165r 7.0958793e-04 3.78e+06 1.92e+03  -7.3 1.55e+04  -1.2 5.77e-02 7.18e-11f  1
 166r 7.0958793e-04 3.73e+06 3.90e+03  -7.3 2.81e+04  -1.7 3.68e-02 1.95e-04f  1
 167r 7.0958764e-04 3.73e+06 3.89e+03  -7.3 2.02e+09    -  1.11e-02 2.47e-09f  1
 168r 7.2669646e-04 1.69e+06 3.32e+03  -7.3 2.02e+09    -  5.78e-01 1.66e-03f  1
 169r 2.6442621e-03 1.39e+06 2.42e+03  -7.3 6.82e+05    -  9.01e-01 1.79e-01f  1
iter    objective    inf_pr   inf_du lg(mu)  ||d||  lg(rg) alpha_du alpha_pr  ls
 170r 2.0889848e-03 6.01e+04 1.59e+05  -7.3 7.66e+05    -  1.19e-02 9.57e-01f  1
 171r 8.0999992e+00 1.99e+08 7.88e+05  -7.3 1.22e+07    -  1.00e+00 7.29e-01f  1
 172r 8.0999991e+00 1.97e+08 7.88e+05  -7.3 3.27e+08    -  1.17e-02 1.17e-02h  1
 173r 8.0999990e+00 1.95e+08 8.05e+05  -7.3 7.24e+02  -2.2 2.00e-06 1.12e-02h  1
 174r 8.0999883e+00 4.29e+07 7.31e+06  -7.3 6.91e+02  -2.6 7.66e-03 7.53e-01h  1
 175r 8.0999883e+00 4.29e+07 7.31e+06  -7.3 8.44e+02   9.2 0.00e+00 5.22e-12R  4
 176r 8.0999883e+00 4.29e+07 7.24e+06  -7.3 1.98e-06   8.7 1.00e+00 9.12e-03f  1
 177r 8.0999883e+00 4.29e+07 1.05e+03  -7.3 5.83e-06   8.3 1.00e+00 1.00e+00f  1
In iteration 177, 1 Slack too small, adjusting variable bound
 178r 8.0999883e+00 4.29e+07 1.05e+03  -7.3 1.75e-05   7.8 1.00e+00 7.09e-02f  1
 179r 8.0999883e+00 4.29e+07 1.05e+03  -7.3 5.25e-05   7.3 1.00e+00 1.00e+00f  1
iter    objective    inf_pr   inf_du lg(mu)  ||d||  lg(rg) alpha_du alpha_pr  ls
 180r 8.0999883e+00 4.29e+07 1.05e+03  -7.3 1.58e-04   6.8 1.00e+00 1.00e+00f  1
 181r 8.0999883e+00 4.29e+07 1.05e+03  -7.3 4.73e-04   6.3 1.00e+00 1.00e+00f  1
 182r 8.0999883e+00 4.29e+07 1.05e+03  -7.3 1.42e-03   5.9 1.00e+00 1.00e+00f  1
 183r 8.0999883e+00 4.29e+07 1.05e+03  -7.3 4.25e-03   5.4 1.00e+00 1.00e+00f  1
 184r 8.0999883e+00 4.29e+07 1.05e+03  -7.3 1.28e-02   4.9 1.00e+00 1.00e+00f  1
 185r 8.0999883e+00 4.29e+07 1.05e+03  -7.3 3.83e-02   4.4 1.00e+00 1.00e+00f  1
 186r 8.0999883e+00 4.29e+07 1.05e+03  -7.3 1.15e-01   4.0 1.00e+00 1.00e+00f  1
 187r 8.0999883e+00 4.29e+07 1.05e+03  -7.3 3.44e-01   3.5 1.00e+00 5.86e-01f  1
 188r 8.0999883e+00 4.26e+07 1.05e+03  -7.3 4.57e+14    -  1.85e-05 6.87e-10f  1
 189r 8.0999883e+00 2.93e+07 1.05e+03  -7.3 4.57e+14    -  7.75e-04 9.08e-08f  1
iter    objective    inf_pr   inf_du lg(mu)  ||d||  lg(rg) alpha_du alpha_pr  ls
 190r 8.0999883e+00 2.93e+07 1.05e+03  -7.3 8.09e+12    -  1.32e-04 1.12e-08f  1
 191r 8.0999883e+00 2.93e+07 1.07e+03  -7.3 3.09e+12    -  1.69e-03 2.69e-06f  1
 192r 8.0999880e+00 2.92e+07 1.07e+03  -7.3 4.85e+08    -  2.08e-07 1.06e-03f  1
 193r 8.0999880e+00 2.92e+07 1.07e+03  -7.3 1.03e+00   3.0 1.00e+00 2.69e-04f  1
 194r 8.0999230e+00 1.35e+07 7.79e+03  -7.3 4.85e+08    -  1.50e-04 2.53e-01f  1
 195r 8.0999229e+00 1.35e+07 7.77e+03  -7.3 2.75e+01   2.5 1.17e-01 2.45e-03h  1
 196r 8.0999229e+00 1.35e+07 7.78e+03  -7.3 3.45e+08    -  3.64e-02 2.38e-08f  1
 197r 8.0999215e+00 1.32e+07 7.33e+03  -7.3 3.45e+08    -  5.24e-01 5.71e-02f  1
 198r 8.0998978e+00 3.49e+07 7.20e+02  -7.3 3.59e+08    -  1.00e+00 1.00e+00f  1
 199r 8.0998978e+00 3.47e+07 1.15e+03  -7.3 4.94e+01   2.1 1.40e-02 3.74e-03h  1
In iteration 199, 1 Slack too small, adjusting variable bound
iter    objective    inf_pr   inf_du lg(mu)  ||d||  lg(rg) alpha_du alpha_pr  ls
 200r 8.0998983e+00 3.08e+07 2.98e+03  -7.3 4.90e+01   1.6 2.35e-09 1.13e-01h  1
In iteration 200, 1 Slack too small, adjusting variable bound
 201r 8.0999013e+00 5.24e+06 5.53e+02  -7.3 2.95e+01   1.1 3.89e-04 8.17e-01h  1
In iteration 201, 1 Slack too small, adjusting variable bound
 202r 8.0999019e+00 5.01e+04 4.89e+01  -7.3 1.14e+01   0.6 1.00e+00 1.00e+00h  1
In iteration 202, 1 Slack too small, adjusting variable bound
 203r 8.0999019e+00 1.13e+05 4.37e+01  -7.3 2.45e+01   0.1 1.00e+00 3.54e-01f  1
In iteration 203, 1 Slack too small, adjusting variable bound
 204r 8.0999019e+00 1.13e+05 4.37e+01  -7.3 7.14e+01  -0.3 1.00e+00 7.97e-06f  1
In iteration 204, 1 Slack too small, adjusting variable bound
 205r 8.0999019e+00 1.14e+05 4.36e+01  -7.3 1.90e+02  -0.8 1.00e+00 6.64e-03f  1
 206r 8.0999019e+00 1.14e+05 9.54e+02  -7.3 4.20e-01  -1.3 0.00e+00 7.80e-10R 12
In iteration 206, 1 Slack too small, adjusting variable bound
 207r 8.0999019e+00 1.14e+05 1.62e+03  -7.3 2.56e+02  -1.8 1.00e+00 1.60e-06f  1
In iteration 207, 1 Slack too small, adjusting variable bound
 208r 8.0999019e+00 3.31e+03 1.55e+03  -7.3 2.57e+02  -2.2 1.00e+00 4.55e-02f  1
In iteration 208, 1 Slack too small, adjusting variable bound
 209r 8.0999019e+00 1.73e+03 2.15e+00  -7.3 1.13e+01  -2.7 1.00e+00 9.99e-01f  1
iter    objective    inf_pr   inf_du lg(mu)  ||d||  lg(rg) alpha_du alpha_pr  ls
 210r 8.0999019e+00 1.73e+03 2.17e-02  -7.3 3.40e+01  -3.2 1.00e+00 1.00e+00f  1
 211r 8.0999019e+00 1.73e+03 2.17e-02  -7.3 1.02e+02  -3.7 1.00e+00 1.00e+00f  1
 212r 8.0999019e+00 1.73e+03 2.17e-02  -7.3 3.06e+02  -4.2 1.00e+00 1.00e+00f  1
 213r 8.0999017e+00 1.73e+03 2.17e-02  -7.3 9.19e+02  -4.6 1.00e+00 1.00e+00f  1
 214r 8.0999013e+00 1.73e+03 2.17e-02  -7.3 2.76e+03  -5.1 1.00e+00 1.00e+00f  1
 215r 8.0999000e+00 5.93e+03 3.38e-02  -7.3 8.30e+03  -5.6 1.00e+00 1.00e+00f  1
 216r 8.0998960e+00 5.59e+04 3.08e-01  -7.3 2.51e+04  -6.1 1.00e+00 1.00e+00f  1
 217r 8.0998825e+00 5.86e+05 2.88e+00  -7.3 7.78e+04  -6.5 1.00e+00 1.00e+00f  1
 218r 8.0998179e+00 1.01e+07 3.31e+01  -7.3 2.81e+05  -7.0 1.00e+00 1.00e+00f  1
 219r 8.0996314e+00 1.59e+07 5.68e+01  -7.3 1.53e+05  -6.6 1.00e+00 1.00e+00f  1
iter    objective    inf_pr   inf_du lg(mu)  ||d||  lg(rg) alpha_du alpha_pr  ls
 220r 8.0993836e+00 1.57e+07 1.71e+02  -7.3 7.76e+08    -  7.57e-01 3.34e-01f  1
 221r 8.0993836e+00 1.57e+07 1.91e+02  -7.3 1.07e+09    -  1.00e+00 1.33e-08h  1
 222r 8.0993432e+00 1.47e+07 1.28e+04  -7.3 4.30e+06    -  1.00e+00 6.52e-02f  1
 223r 8.0986851e+00 5.75e+06 1.52e+01  -7.3 4.02e+06    -  1.00e+00 1.00e+00f  1
 224r 8.0973774e+00 2.32e+07 1.62e+03  -7.3 3.19e+04    -  6.94e-01 1.00e+00f  1
 225r 8.0960841e+00 9.00e+06 5.05e+00  -7.3 1.59e+04    -  1.00e+00 4.93e-01f  1
 226r 8.0960841e+00 9.00e+06 1.79e+01  -7.3 2.37e+04    -  7.53e-01 2.42e-08h  1
 227r 8.0951196e+00 6.38e+05 7.56e-01  -7.3 5.85e+03    -  1.00e+00 1.00e+00h  1
 228r 8.0950228e+00 1.30e+05 3.47e+02  -7.3 7.73e+02    -  7.17e-01 7.60e-01h  1
 229r 8.0949906e+00 2.31e+03 2.48e+03  -7.3 1.95e+02    -  3.89e-01 1.00e+00h  1
iter    objective    inf_pr   inf_du lg(mu)  ||d||  lg(rg) alpha_du alpha_pr  ls
 230r 8.0949905e+00 1.78e+03 1.25e+03  -7.3 5.71e-01    -  5.59e-01 1.00e+00h  1
 231r 8.0949905e+00 1.78e+03 2.24e+02  -7.3 1.97e-01    -  4.60e-01 1.00e+00h  1
 232r 8.0949905e+00 1.78e+03 4.19e+02  -7.3 8.78e-01    -  2.75e-01 1.00e+00f  1
 233r 8.0949904e+00 1.78e+03 1.33e+03  -7.3 6.83e+02    -  4.99e-03 1.00e+00f  1
 234r 8.0947727e+00 6.61e+04 1.40e+02  -7.3 1.00e+06    -  6.78e-04 1.00e+00f  1
 235r 8.0878070e+00 6.21e+07 1.24e+02  -7.3 3.94e+08    -  2.55e-03 7.89e-02f  1
 236r 8.0878070e+00 6.21e+07 1.00e+03  -7.3 2.53e+08    -  0.00e+00 9.07e-10R  4
 237r 8.0878072e+00 6.21e+07 1.00e+03  -7.3 6.90e+10    -  2.62e-11 1.02e-08f 16
 238r 8.0878073e+00 6.21e+07 1.00e+03  -7.3 7.67e+10    -  2.01e-03 2.55e-09f 18
 239r 8.0878073e+00 6.21e+07 1.00e+03  -7.3 7.44e+10    -  1.20e-08 3.19e-10f 21
iter    objective    inf_pr   inf_du lg(mu)  ||d||  lg(rg) alpha_du alpha_pr  ls
 240r 8.0878073e+00 6.21e+07 1.00e+03  -7.3 7.51e+10    -  9.10e-09 1.59e-10f 22
 241r 8.0878073e+00 6.21e+07 1.00e+03  -7.3 7.59e+10    -  1.02e-10 7.67e-12f 26
 242r 8.0971689e+00 3.50e+07 1.00e+03  -7.3 7.66e+10    -  2.22e-08 2.57e-04f  1
 243r 8.0971689e+00 3.50e+07 1.00e+03  -7.3 1.07e+11    -  1.37e-04 5.55e-12f  1
 244r 8.0977212e+00 2.35e+07 9.96e+02  -7.3 5.81e+10    -  1.39e-02 4.83e-04f  1
 245r 8.0976909e+00 2.34e+07 9.35e+02  -7.3 5.82e+08    -  2.16e-01 3.64e-03f  1
 246r 8.0968392e+00 2.29e+07 8.67e+02  -7.3 4.78e+08    -  7.31e-02 6.46e-02f  1
 247r 8.0949519e+00 2.24e+07 5.97e+02  -7.3 4.25e+08    -  3.12e-01 1.33e-01f  1
 248r 8.0871211e+00 2.55e+07 1.13e+03  -7.3 3.21e+08    -  1.44e-03 4.79e-01f  1
 249r 8.0759664e+00 9.80e+06 5.94e+02  -7.3 8.30e+07    -  3.02e-03 4.80e-01h  1
iter    objective    inf_pr   inf_du lg(mu)  ||d||  lg(rg) alpha_du alpha_pr  ls
 250r 8.0655628e+00 1.43e+07 5.94e+02  -7.3 3.66e+09    -  1.06e-04 1.94e-02f  1
 251r 8.0655628e+00 1.43e+07 9.99e+02  -7.3 2.06e+09    -  0.00e+00 1.01e-10R  5
 252r 8.0654570e+00 6.64e+05 9.93e+02  -7.3 6.38e+08    -  3.69e-01 1.47e-03f  1
 253r 8.0645096e+00 1.70e+05 9.70e+02  -7.3 5.63e+08    -  1.00e+00 7.14e-03f  1
 254r 8.0607536e+00 3.77e+05 8.62e+02  -7.3 5.24e+08    -  2.82e-01 3.01e-02f  1
 255r 8.0497598e+00 3.04e+06 4.80e+02  -7.3 1.80e+08    -  1.00e+00 1.36e-01f  1
 256r 8.0202270e+00 1.10e+07 1.64e+02  -7.3 1.12e+08    -  6.15e-01 6.58e-01f  1
 257r 7.9553473e+00 7.10e+06 1.78e-01  -7.3 7.88e+07    -  1.00e+00 9.99e-01h  1
 258r 7.8425610e+00 1.17e+07 1.32e-02  -7.3 5.83e+07    -  1.00e+00 1.00e+00h  1
 259r 7.6469884e+00 4.89e+06 7.17e-03  -7.3 5.49e+07    -  1.00e+00 1.00e+00h  1
iter    objective    inf_pr   inf_du lg(mu)  ||d||  lg(rg) alpha_du alpha_pr  ls
 260r 7.3114010e+00 1.37e+07 3.90e-03  -7.3 5.02e+07    -  1.00e+00 1.00e+00h  1
 261r 6.7521187e+00 1.59e+06 5.70e-03  -7.3 4.55e+07    -  1.00e+00 1.00e+00h  1
 262r 5.8665509e+00 1.58e+07 1.61e-02  -7.3 4.07e+07    -  1.00e+00 1.00e+00h  1
 263r 4.6218118e+00 2.26e+06 3.99e-02  -7.3 3.40e+07    -  1.00e+00 1.00e+00h  1
 264r 3.3050744e+00 9.54e+06 7.37e-02  -7.3 2.32e+07    -  1.00e+00 1.00e+00h  1
 265r 2.5726955e+00 8.83e+05 6.73e-02  -7.3 8.83e+06    -  1.00e+00 1.00e+00h  1
 266r 2.4462190e+00 6.54e+04 1.59e-02  -7.3 1.22e+06    -  1.00e+00 1.00e+00h  1
 267r 2.4430506e+00 2.21e+03 4.33e-04  -7.3 3.19e+04    -  1.00e+00 1.00e+00h  1
 268r 2.4430453e+00 2.21e+03 6.05e-07  -7.3 7.90e+01    -  1.00e+00 1.00e+00h  1
 269r 2.4430454e+00 2.21e+03 7.18e-02  -9.0 3.12e-01    -  1.00e+00 1.00e+00H  1
iter    objective    inf_pr   inf_du lg(mu)  ||d||  lg(rg) alpha_du alpha_pr  ls
 270r 2.4285676e+00 2.20e+03 1.47e-03  -9.0 2.63e+05    -  1.00e+00 1.00e+00f  1
 271r 2.3997076e+00 2.19e+03 2.95e-03  -9.0 5.25e+05    -  1.00e+00 1.00e+00h  1
 272r 2.3993670e+00 2.19e+03 4.10e-05  -9.0 4.64e+03    -  1.00e+00 1.00e+00h  1
 273r 2.3993645e+00 2.19e+03 2.53e-07  -9.0 4.44e+01    -  1.00e+00 1.00e+00h  1
 274r 2.3993645e+00 2.19e+03 2.52e-07  -9.0 2.72e-01    -  1.00e+00 3.91e-03h  9
 275r 2.3993645e+00 2.19e+03 1.54e-09  -9.0 2.71e-01    -  1.00e+00 1.00e+00h  1

Number of Iterations....: 275

                                   (scaled)                 (unscaled)
Objective...............:   2.3744917159610788e+00    2.3993645166857474e+00
Dual infeasibility......:   9.6951056029417302e+01    9.7966618341324477e+01
Constraint violation....:   2.1937241769727143e-05    2.1937241769727143e+03
Variable bound violation:   0.0000000000000000e+00    0.0000000000000000e+00
Complementarity.........:   9.0909090909612241e-10    9.1861363636889515e-10
Overall NLP error.......:   2.1937241769727143e-05    2.1937241769727143e+03


Number of objective function evaluations             = 597
Number of objective gradient evaluations             = 4
Number of equality constraint evaluations            = 605
Number of inequality constraint evaluations          = 0
Number of equality constraint Jacobian evaluations   = 285
Number of inequality constraint Jacobian evaluations = 0
Number of Lagrangian Hessian evaluations             = 275
Total seconds in IPOPT                               = 0.728

EXIT: Converged to a point of local infeasibility. Problem may be infeasible.

